
Gurobi 11.0.0 (mac64[arm], gurobi_cl) logging started Tue Jun  3 13:05:33 2025

Set parameter Username
Set parameter LogFile to value "gurobi.log"
Using license file /Users/folasadeayoola/gurobi.lic

Gurobi 11.0.0 (mac64[arm], gurobi_cl) logging started Tue Jun  3 14:03:56 2025

Set parameter Username
Set parameter LogFile to value "gurobi.log"
Using license file /Users/folasadeayoola/gurobi.lic
Academic license - for non-commercial use only - expires 2026-06-03
